c ind 190 189 188 187 186 185 184 183 182 181 180 179 178 177 176 175 174 173 172 171 170 169 168 167 166 165 164 163 162 161 160 159  0
c ind 127 126 125 124 123 122 121 120 119 118 117 116 115 114 113 112 111 110 109 108 107 106 105 104 103 102 101 100 99 98 97 96  0
c ind 635 634 633 632 631 630 629 628 627 626 625 624 623 622 621 620 619 618 617 616 615 614 613 612 611 610 609 608 607 606 605 604  0
c ind 33 32 31 30 29 28 27 26 25 24 23 22 21 20 19 18 17 16 15 14 13 12 11 10 9 8 7 6 5 4 3 2  0
c ind 1095 1094 1093 1092 1091 1090 1089 1088 1087 1086 1085 1084 1083 1082 1081 1080 1079 1078 1077 1076 1075 1074 1073 1072 1071 1070 1069 1068 1067 1066 1065 1064  0
c ind 1032 1031 1030 1029 1028 1027 1026 1025 1024 1023 1022 1021 1020 1019 1018 1017 1016 1015 1014 1013 1012 1011 1010 1009 1008 1007 1006 1005 1004 1003 1002 1001  0
c ind 315 314 313 312 311 310 309 308 307 306 305 304 303 302 301 300 299 298 297 296 295 294 293 292 291 290 289 288 287 286 285 284  0
c ind 962 961 960 959 958 957 956 955 954 953 952 951 950 949 948 947 946 945 944 943 942 941 940 939 938 937 936 935 934 933 932 931  0
c ind 899 898 897 896 895 894 893 892 891 890 889 888 887 886 885 884 883 882 881 880 879 878 877 876 875 874 873 872 871 870 869 868  0
c ind 541 540 539 538 537 536 535 534 533 532 531 530 529 528 527 526 525 524 523 522 521 520 519 518 517 516 515 514 513 512 511 510  0
c ind 447 446 445 444 443 442 441 440 439 438 437 436 435 434 433 432 431 430 429 428 427 426 425 424 423 422 421 420 419 418 417 416  0
c ind 805 804 803 802 801 800 799 798 797 796 795 794 793 792 791 790 789 788 787 786 785 784 783 782 781 780 779 778 777 776 775 774  0
p cnf 1271 2596
1 0
-64 0
-95 0
-158 0
-221 0
-252 0
-283 0
-346 0
-377 0
-408 0
-415 0
-478 0
-509 0
-572 0
-603 0
-666 0
-697 0
-728 0
-735 0
-766 0
-773 0
-836 0
-867 0
-868 0
-869 0
-870 0
-871 0
-872 0
-873 0
-874 0
-875 0
-876 0
-877 0
-878 0
-879 0
-880 0
-881 0
-882 0
-883 0
-884 0
-885 0
-886 0
-887 0
-888 0
-889 0
-890 0
-891 0
-892 0
-893 0
-894 0
-895 0
-896 0
-897 0
-898 0
-899 0
900 0
901 0
902 0
903 0
904 0
905 0
906 0
907 0
908 0
909 0
910 0
911 0
912 0
913 0
914 0
915 0
916 0
917 0
918 0
919 0
920 0
921 0
922 0
923 0
924 0
925 0
926 0
927 0
928 0
929 0
930 0
-993 0
-1000 0
-1063 0
-1126 0
-1157 0
-1164 0
-1195 0
-1202 0
-1233 0
-1264 0
-1271 0
-2 -34 0
-2 -65 0
-2 -667 0
2 3 34 0
2 3 65 0
2 3 667 0
-3 -34 0
-3 -65 0
-3 -667 0
-4 -35 0
-4 -66 0
-4 -668 0
4 -34 35 0
4 -65 66 0
4 -667 668 0
-5 -36 0
-5 -67 0
-5 -669 0
5 -35 36 0
5 -66 67 0
5 -668 669 0
-6 -37 0
-6 -68 0
-6 -670 0
6 -36 37 0
6 -67 68 0
6 -669 670 0
-7 -38 0
-7 -69 0
-7 -671 0
7 -37 38 0
7 -68 69 0
7 -670 671 0
-8 -39 0
-8 -70 0
-8 -672 0
8 -38 39 0
8 -69 70 0
8 -671 672 0
-9 -40 0
-9 -71 0
-9 -673 0
9 -39 40 0
9 -70 71 0
9 -672 673 0
-10 -41 0
-10 -72 0
-10 -674 0
10 -40 41 0
10 -71 72 0
10 -673 674 0
-11 -42 0
-11 -73 0
-11 -675 0
11 -41 42 0
11 -72 73 0
11 -674 675 0
-12 -43 0
-12 -74 0
-12 -676 0
12 -42 43 0
12 -73 74 0
12 -675 676 0
-13 -44 0
-13 -75 0
-13 -677 0
13 -43 44 0
13 -74 75 0
13 -676 677 0
-14 -45 0
-14 -76 0
-14 -678 0
14 -44 45 0
14 -75 76 0
14 -677 678 0
-15 -46 0
-15 -77 0
-15 -679 0
15 -45 46 0
15 -76 77 0
15 -678 679 0
-16 -47 0
-16 -78 0
-16 -680 0
16 -46 47 0
16 -77 78 0
16 -679 680 0
-17 -48 0
-17 -79 0
-17 -681 0
17 -47 48 0
17 -78 79 0
17 -680 681 0
-18 -49 0
-18 -80 0
-18 -682 0
18 -48 49 0
18 -79 80 0
18 -681 682 0
-19 -50 0
-19 -81 0
-19 -683 0
19 -49 50 0
19 -80 81 0
19 -682 683 0
-20 -51 0
-20 -82 0
-20 -684 0
20 -50 51 0
20 -81 82 0
20 -683 684 0
-21 -52 0
-21 -83 0
-21 -685 0
21 -51 52 0
21 -82 83 0
21 -684 685 0
-22 -53 0
-22 -84 0
-22 -686 0
22 -52 53 0
22 -83 84 0
22 -685 686 0
-23 -54 0
-23 -85 0
-23 -687 0
23 -53 54 0
23 -84 85 0
23 -686 687 0
-24 -55 0
-24 -86 0
-24 -688 0
24 -54 55 0
24 -85 86 0
24 -687 688 0
-25 -56 0
-25 -87 0
-25 -689 0
25 -55 56 0
25 -86 87 0
25 -688 689 0
-26 -57 0
-26 -88 0
-26 -690 0
26 -56 57 0
26 -87 88 0
26 -689 690 0
-27 -58 0
-27 -89 0
-27 -690 691 0
27 -691 0
27 -57 58 0
27 -88 89 0
-28 -59 0
-28 -692 0
-28 -89 90 0
28 -90 0
28 -58 59 0
28 -691 692 0
-29 -60 0
-29 -91 0
-29 -692 693 0
29 -693 0
29 -59 60 0
29 -90 91 0
-30 -61 0
-30 -92 0
-30 -693 694 0
30 -694 0
30 -60 61 0
30 -91 92 0
-31 -62 0
-31 -92 93 0
-31 -694 695 0
31 -93 0
31 -695 0
31 -61 62 0
-32 -63 0
-32 -94 0
-32 -696 0
32 -62 63 0
32 -93 94 0
32 -695 696 0
-33 -94 0
33 -63 0
33 -696 0
34 -35 0
35 -36 0
36 -37 0
37 -38 0
38 -39 0
39 -40 0
40 -41 0
41 -42 0
42 -43 0
43 -44 0
44 -45 0
45 -46 0
46 -47 0
47 -48 0
48 -49 0
49 -50 0
50 -51 0
51 -52 0
52 -53 0
53 -54 0
54 -55 0
55 -56 0
56 -57 0
57 -58 0
58 -59 0
59 -60 0
60 -61 0
61 -62 0
62 -63 0
65 -66 0
66 -67 0
67 -68 0
68 -69 0
69 -70 0
70 -71 0
71 -72 0
72 -73 0
73 -74 0
74 -75 0
75 -76 0
76 -77 0
77 -78 0
78 -79 0
79 -80 0
80 -81 0
81 -82 0
82 -83 0
83 -84 0
84 -85 0
85 -86 0
86 -87 0
87 -88 0
88 -89 0
89 -90 0
90 -91 0
91 -92 0
92 -93 0
93 -94 0
-96 -128 0
-96 -378 0
96 97 128 0
96 97 378 0
-97 -128 0
-97 -378 0
-98 -129 0
-98 -379 0
98 -128 129 0
98 -378 379 0
-99 -130 0
-99 -380 0
99 -129 130 0
99 -379 380 0
-100 -131 0
-100 -381 0
100 -130 131 0
100 -380 381 0
-101 -132 0
-101 -382 0
101 -131 132 0
101 -381 382 0
-102 -133 0
-102 -383 0
102 -132 133 0
102 -382 383 0
-103 -134 0
-103 -384 0
103 -133 134 0
103 -383 384 0
-104 -135 0
-104 -385 0
104 -134 135 0
104 -384 385 0
-105 -136 0
-105 -386 0
105 -135 136 0
105 -385 386 0
-106 -137 0
-106 -387 0
106 -136 137 0
106 -386 387 0
-107 -138 0
-107 -388 0
107 -137 138 0
107 -387 388 0
-108 -139 0
-108 -389 0
108 -138 139 0
108 -388 389 0
-109 -140 0
-109 -390 0
109 -139 140 0
109 -389 390 0
-110 -141 0
-110 -391 0
110 -140 141 0
110 -390 391 0
-111 -142 0
-111 -392 0
111 -141 142 0
111 -391 392 0
-112 -143 0
-112 -393 0
112 -142 143 0
112 -392 393 0
-113 -144 0
-113 -394 0
113 -143 144 0
113 -393 394 0
-114 -145 0
-114 -395 0
114 -144 145 0
114 -394 395 0
-115 -146 0
-115 -396 0
115 -145 146 0
115 -395 396 0
-116 -147 0
-116 -397 0
116 -146 147 0
116 -396 397 0
-117 -148 0
-117 -398 0
117 -147 148 0
117 -397 398 0
-118 -149 0
-118 -399 0
118 -148 149 0
118 -398 399 0
-119 -150 0
-119 -400 0
119 -149 150 0
119 -399 400 0
-120 -151 0
-120 -401 0
120 -150 151 0
120 -400 401 0
-121 -402 0
-121 -409 0
-121 -151 152 0
121 -152 0
121 -401 402 0
121 -401 409 0
-122 -153 0
-122 -403 0
-122 -409 410 0
122 -410 0
122 -152 153 0
122 -402 403 0
-123 -404 0
-123 -411 0
-123 -153 154 0
123 -154 0
123 -403 404 0
123 -410 411 0
-124 -405 0
-124 -412 0
-124 -154 155 0
124 -155 0
124 -404 405 0
124 -411 412 0
-125 -406 0
-125 -155 156 0
-125 -412 413 0
125 -156 0
125 -413 0
125 -405 406 0
-126 -157 0
-126 -407 0
-126 -414 0
126 -156 157 0
126 -406 407 0
126 -413 414 0
-127 -414 0
127 -157 0
127 -407 0
128 -129 0
129 -130 0
130 -131 0
131 -132 0
132 -133 0
133 -134 0
134 -135 0
135 -136 0
136 -137 0
137 -138 0
138 -139 0
139 -140 0
140 -141 0
141 -142 0
142 -143 0
143 -144 0
144 -145 0
145 -146 0
146 -147 0
147 -148 0
148 -149 0
149 -150 0
150 -151 0
151 -152 0
152 -153 0
153 -154 0
154 -155 0
155 -156 0
156 -157 0
-159 -191 0
-159 -222 0
-159 -253 0
159 160 191 0
159 160 222 0
159 160 253 0
-160 -191 0
-160 -222 0
-160 -253 0
-161 -192 0
-161 -223 0
-161 -254 0
161 -191 192 0
161 -222 223 0
161 -253 254 0
-162 -193 0
-162 -224 0
-162 -255 0
162 -192 193 0
162 -223 224 0
162 -254 255 0
-163 -194 0
-163 -225 0
-163 -256 0
163 -193 194 0
163 -224 225 0
163 -255 256 0
-164 -195 0
-164 -226 0
-164 -257 0
164 -194 195 0
164 -225 226 0
164 -256 257 0
-165 -196 0
-165 -227 0
-165 -258 0
165 -195 196 0
165 -226 227 0
165 -257 258 0
-166 -197 0
-166 -228 0
-166 -259 0
166 -196 197 0
166 -227 228 0
166 -258 259 0
-167 -198 0
-167 -229 0
-167 -260 0
167 -197 198 0
167 -228 229 0
167 -259 260 0
-168 -199 0
-168 -230 0
-168 -261 0
168 -198 199 0
168 -229 230 0
168 -260 261 0
-169 -200 0
-169 -231 0
-169 -262 0
169 -199 200 0
169 -230 231 0
169 -261 262 0
-170 -201 0
-170 -232 0
-170 -263 0
170 -200 201 0
170 -231 232 0
170 -262 263 0
-171 -202 0
-171 -233 0
-171 -264 0
171 -201 202 0
171 -232 233 0
171 -263 264 0
-172 -203 0
-172 -234 0
-172 -265 0
172 -202 203 0
172 -233 234 0
172 -264 265 0
-173 -204 0
-173 -235 0
-173 -266 0
173 -203 204 0
173 -234 235 0
173 -265 266 0
-174 -205 0
-174 -236 0
-174 -267 0
174 -204 205 0
174 -235 236 0
174 -266 267 0
-175 -206 0
-175 -237 0
-175 -268 0
175 -205 206 0
175 -236 237 0
175 -267 268 0
-176 -207 0
-176 -238 0
-176 -269 0
176 -206 207 0
176 -237 238 0
176 -268 269 0
-177 -208 0
-177 -239 0
-177 -270 0
177 -207 208 0
177 -238 239 0
177 -269 270 0
-178 -209 0
-178 -240 0
-178 -271 0
178 -208 209 0
178 -239 240 0
178 -270 271 0
-179 -210 0
-179 -241 0
-179 -272 0
179 -209 210 0
179 -240 241 0
179 -271 272 0
-180 -211 0
-180 -242 0
-180 -273 0
180 -210 211 0
180 -241 242 0
180 -272 273 0
-181 -212 0
-181 -243 0
-181 -274 0
181 -211 212 0
181 -242 243 0
181 -273 274 0
-182 -213 0
-182 -244 0
-182 -275 0
182 -212 213 0
182 -243 244 0
182 -274 275 0
-183 -214 0
-183 -245 0
-183 -276 0
183 -213 214 0
183 -244 245 0
183 -275 276 0
-184 -215 0
-184 -246 0
-184 -276 277 0
184 -277 0
184 -214 215 0
184 -245 246 0
-185 -216 0
-185 -278 0
-185 -246 247 0
185 -247 0
185 -215 216 0
185 -277 278 0
-186 -217 0
-186 -248 0
-186 -278 279 0
186 -279 0
186 -216 217 0
186 -247 248 0
-187 -218 0
-187 -249 0
-187 -279 280 0
187 -280 0
187 -217 218 0
187 -248 249 0
-188 -219 0
-188 -249 250 0
-188 -280 281 0
188 -250 0
188 -281 0
188 -218 219 0
-189 -220 0
-189 -251 0
-189 -282 0
189 -219 220 0
189 -250 251 0
189 -281 282 0
-190 -251 0
190 -220 0
190 -282 0
191 -192 0
192 -193 0
193 -194 0
194 -195 0
195 -196 0
196 -197 0
197 -198 0
198 -199 0
199 -200 0
200 -201 0
201 -202 0
202 -203 0
203 -204 0
204 -205 0
205 -206 0
206 -207 0
207 -208 0
208 -209 0
209 -210 0
210 -211 0
211 -212 0
212 -213 0
213 -214 0
214 -215 0
215 -216 0
216 -217 0
217 -218 0
218 -219 0
219 -220 0
222 -223 0
223 -224 0
224 -225 0
225 -226 0
226 -227 0
227 -228 0
228 -229 0
229 -230 0
230 -231 0
231 -232 0
232 -233 0
233 -234 0
234 -235 0
235 -236 0
236 -237 0
237 -238 0
238 -239 0
239 -240 0
240 -241 0
241 -242 0
242 -243 0
243 -244 0
244 -245 0
245 -246 0
246 -247 0
247 -248 0
248 -249 0
249 -250 0
250 -251 0
253 -254 0
254 -255 0
255 -256 0
256 -257 0
257 -258 0
258 -259 0
259 -260 0
260 -261 0
261 -262 0
262 -263 0
263 -264 0
264 -265 0
265 -266 0
266 -267 0
267 -268 0
268 -269 0
269 -270 0
270 -271 0
271 -272 0
272 -273 0
273 -274 0
274 -275 0
275 -276 0
276 -277 0
277 -278 0
278 -279 0
279 -280 0
280 -281 0
281 -282 0
-284 -316 0
-284 -347 0
284 285 316 0
284 285 347 0
-285 -316 0
-285 -347 0
-286 -317 0
-286 -348 0
286 -316 317 0
286 -347 348 0
-287 -318 0
-287 -349 0
287 -317 318 0
287 -348 349 0
-288 -319 0
-288 -350 0
288 -318 319 0
288 -349 350 0
-289 -320 0
-289 -351 0
289 -319 320 0
289 -350 351 0
-290 -321 0
-290 -352 0
290 -320 321 0
290 -351 352 0
-291 -322 0
-291 -353 0
291 -321 322 0
291 -352 353 0
-292 -323 0
-292 -354 0
292 -322 323 0
292 -353 354 0
-293 -324 0
-293 -355 0
293 -323 324 0
293 -354 355 0
-294 -325 0
-294 -356 0
294 -324 325 0
294 -355 356 0
-295 -326 0
-295 -357 0
295 -325 326 0
295 -356 357 0
-296 -327 0
-296 -358 0
296 -326 327 0
296 -357 358 0
-297 -328 0
-297 -359 0
297 -327 328 0
297 -358 359 0
-298 -329 0
-298 -360 0
298 -328 329 0
298 -359 360 0
-299 -330 0
-299 -361 0
299 -329 330 0
299 -360 361 0
-300 -331 0
-300 -362 0
300 -330 331 0
300 -361 362 0
-301 -332 0
-301 -363 0
301 -331 332 0
301 -362 363 0
-302 -333 0
-302 -364 0
302 -332 333 0
302 -363 364 0
-303 -334 0
-303 -365 0
303 -333 334 0
303 -364 365 0
-304 -335 0
-304 -366 0
304 -334 335 0
304 -365 366 0
-305 -336 0
-305 -367 0
305 -335 336 0
305 -366 367 0
-306 -337 0
-306 -368 0
306 -336 337 0
306 -367 368 0
-307 -338 0
-307 -369 0
307 -337 338 0
307 -368 369 0
-308 -339 0
-308 -370 0
308 -338 339 0
308 -369 370 0
-309 -340 0
-309 -994 0
-309 -370 371 0
309 -371 0
309 -339 340 0
309 -370 994 0
-310 -372 0
-310 -995 0
-310 -340 341 0
310 -341 0
310 -371 372 0
310 -994 995 0
-311 -342 0
-311 -996 0
-311 -372 373 0
311 -373 0
311 -341 342 0
311 -995 996 0
-312 -343 0
-312 -997 0
-312 -373 374 0
312 -374 0
312 -342 343 0
312 -996 997 0
-313 -998 0
-313 -343 344 0
-313 -374 375 0
313 -344 0
313 -375 0
313 -997 998 0
-314 -345 0
-314 -376 0
-314 -999 0
314 -344 345 0
314 -375 376 0
314 -998 999 0
-315 -345 0
315 -376 0
315 -999 0
316 -317 0
317 -318 0
318 -319 0
319 -320 0
320 -321 0
321 -322 0
322 -323 0
323 -324 0
324 -325 0
325 -326 0
326 -327 0
327 -328 0
328 -329 0
329 -330 0
330 -331 0
331 -332 0
332 -333 0
333 -334 0
334 -335 0
335 -336 0
336 -337 0
337 -338 0
338 -339 0
339 -340 0
340 -341 0
341 -342 0
342 -343 0
343 -344 0
344 -345 0
347 -348 0
348 -349 0
349 -350 0
350 -351 0
351 -352 0
352 -353 0
353 -354 0
354 -355 0
355 -356 0
356 -357 0
357 -358 0
358 -359 0
359 -360 0
360 -361 0
361 -362 0
362 -363 0
363 -364 0
364 -365 0
365 -366 0
366 -367 0
367 -368 0
368 -369 0
369 -370 0
370 -371 0
370 -994 0
371 -372 0
372 -373 0
373 -374 0
374 -375 0
375 -376 0
378 -379 0
379 -380 0
380 -381 0
381 -382 0
382 -383 0
383 -384 0
384 -385 0
385 -386 0
386 -387 0
387 -388 0
388 -389 0
389 -390 0
390 -391 0
391 -392 0
392 -393 0
393 -394 0
394 -395 0
395 -396 0
396 -397 0
397 -398 0
398 -399 0
399 -400 0
400 -401 0
401 -402 0
401 -409 0
402 -403 0
403 -404 0
404 -405 0
405 -406 0
406 -407 0
409 -410 0
410 -411 0
411 -412 0
412 -413 0
413 -414 0
-416 -448 0
-416 -479 0
-416 -573 0
416 417 448 0
416 417 479 0
416 417 573 0
-417 -448 0
-417 -479 0
-417 -573 0
-418 -449 0
-418 -480 0
-418 -574 0
418 -448 449 0
418 -479 480 0
418 -573 574 0
-419 -450 0
-419 -481 0
-419 -575 0
419 -449 450 0
419 -480 481 0
419 -574 575 0
-420 -451 0
-420 -482 0
-420 -576 0
420 -450 451 0
420 -481 482 0
420 -575 576 0
-421 -452 0
-421 -483 0
-421 -577 0
421 -451 452 0
421 -482 483 0
421 -576 577 0
-422 -453 0
-422 -484 0
-422 -578 0
422 -452 453 0
422 -483 484 0
422 -577 578 0
-423 -454 0
-423 -485 0
-423 -579 0
423 -453 454 0
423 -484 485 0
423 -578 579 0
-424 -455 0
-424 -486 0
-424 -580 0
424 -454 455 0
424 -485 486 0
424 -579 580 0
-425 -456 0
-425 -487 0
-425 -581 0
425 -455 456 0
425 -486 487 0
425 -580 581 0
-426 -457 0
-426 -488 0
-426 -582 0
426 -456 457 0
426 -487 488 0
426 -581 582 0
-427 -458 0
-427 -489 0
-427 -583 0
427 -457 458 0
427 -488 489 0
427 -582 583 0
-428 -459 0
-428 -490 0
-428 -584 0
428 -458 459 0
428 -489 490 0
428 -583 584 0
-429 -460 0
-429 -491 0
-429 -585 0
429 -459 460 0
429 -490 491 0
429 -584 585 0
-430 -461 0
-430 -492 0
-430 -586 0
430 -460 461 0
430 -491 492 0
430 -585 586 0
-431 -462 0
-431 -493 0
-431 -587 0
431 -461 462 0
431 -492 493 0
431 -586 587 0
-432 -463 0
-432 -494 0
-432 -588 0
432 -462 463 0
432 -493 494 0
432 -587 588 0
-433 -464 0
-433 -495 0
-433 -589 0
433 -463 464 0
433 -494 495 0
433 -588 589 0
-434 -465 0
-434 -496 0
-434 -590 0
434 -464 465 0
434 -495 496 0
434 -589 590 0
-435 -466 0
-435 -497 0
-435 -591 0
435 -465 466 0
435 -496 497 0
435 -590 591 0
-436 -467 0
-436 -498 0
-436 -592 0
436 -466 467 0
436 -497 498 0
436 -591 592 0
-437 -468 0
-437 -499 0
-437 -593 0
437 -467 468 0
437 -498 499 0
437 -592 593 0
-438 -469 0
-438 -500 0
-438 -594 0
438 -468 469 0
438 -499 500 0
438 -593 594 0
-439 -470 0
-439 -501 0
-439 -595 0
439 -469 470 0
439 -500 501 0
439 -594 595 0
-440 -471 0
-440 -502 0
-440 -596 0
440 -470 471 0
440 -501 502 0
440 -595 596 0
-441 -472 0
-441 -503 0
-441 -596 597 0
441 -597 0
441 -471 472 0
441 -502 503 0
-442 -504 0
-442 -598 0
-442 -472 473 0
442 -473 0
442 -503 504 0
442 -597 598 0
-443 -474 0
-443 -505 0
-443 -598 599 0
443 -599 0
443 -473 474 0
443 -504 505 0
-444 -475 0
-444 -506 0
-444 -599 600 0
444 -600 0
444 -474 475 0
444 -505 506 0
-445 -507 0
-445 -475 476 0
-445 -600 601 0
445 -476 0
445 -601 0
445 -506 507 0
-446 -477 0
-446 -508 0
-446 -602 0
446 -476 477 0
446 -507 508 0
446 -601 602 0
-447 -477 0
447 -508 0
447 -602 0
448 -449 0
449 -450 0
450 -451 0
451 -452 0
452 -453 0
453 -454 0
454 -455 0
455 -456 0
456 -457 0
457 -458 0
458 -459 0
459 -460 0
460 -461 0
461 -462 0
462 -463 0
463 -464 0
464 -465 0
465 -466 0
466 -467 0
467 -468 0
468 -469 0
469 -470 0
470 -471 0
471 -472 0
472 -473 0
473 -474 0
474 -475 0
475 -476 0
476 -477 0
479 -480 0
480 -481 0
481 -482 0
482 -483 0
483 -484 0
484 -485 0
485 -486 0
486 -487 0
487 -488 0
488 -489 0
489 -490 0
490 -491 0
491 -492 0
492 -493 0
493 -494 0
494 -495 0
495 -496 0
496 -497 0
497 -498 0
498 -499 0
499 -500 0
500 -501 0
501 -502 0
502 -503 0
503 -504 0
504 -505 0
505 -506 0
506 -507 0
507 -508 0
-510 -542 0
-510 -736 0
510 511 542 0
510 511 736 0
-511 -542 0
-511 -736 0
-512 -543 0
-512 -737 0
512 -542 543 0
512 -736 737 0
-513 -544 0
-513 -738 0
513 -543 544 0
513 -737 738 0
-514 -545 0
-514 -739 0
514 -544 545 0
514 -738 739 0
-515 -546 0
-515 -740 0
515 -545 546 0
515 -739 740 0
-516 -547 0
-516 -741 0
516 -546 547 0
516 -740 741 0
-517 -548 0
-517 -742 0
517 -547 548 0
517 -741 742 0
-518 -549 0
-518 -743 0
518 -548 549 0
518 -742 743 0
-519 -550 0
-519 -744 0
519 -549 550 0
519 -743 744 0
-520 -551 0
-520 -745 0
520 -550 551 0
520 -744 745 0
-521 -552 0
-521 -746 0
521 -551 552 0
521 -745 746 0
-522 -553 0
-522 -747 0
522 -552 553 0
522 -746 747 0
-523 -554 0
-523 -748 0
523 -553 554 0
523 -747 748 0
-524 -555 0
-524 -749 0
524 -554 555 0
524 -748 749 0
-525 -556 0
-525 -750 0
525 -555 556 0
525 -749 750 0
-526 -557 0
-526 -751 0
526 -556 557 0
526 -750 751 0
-527 -558 0
-527 -752 0
527 -557 558 0
527 -751 752 0
-528 -559 0
-528 -753 0
528 -558 559 0
528 -752 753 0
-529 -560 0
-529 -754 0
529 -559 560 0
529 -753 754 0
-530 -561 0
-530 -755 0
530 -560 561 0
530 -754 755 0
-531 -562 0
-531 -756 0
531 -561 562 0
531 -755 756 0
-532 -563 0
-532 -757 0
532 -562 563 0
532 -756 757 0
-533 -564 0
-533 -758 0
533 -563 564 0
533 -757 758 0
-534 -565 0
-534 -759 0
534 -564 565 0
534 -758 759 0
-535 -566 0
-535 -767 0
-535 -759 760 0
535 -760 0
535 -565 566 0
535 -759 767 0
-536 -567 0
-536 -761 0
-536 -767 768 0
536 -768 0
536 -566 567 0
536 -760 761 0
-537 -568 0
-537 -769 0
-537 -761 762 0
537 -762 0
537 -567 568 0
537 -768 769 0
-538 -569 0
-538 -770 0
-538 -762 763 0
538 -763 0
538 -568 569 0
538 -769 770 0
-539 -570 0
-539 -763 764 0
-539 -770 771 0
539 -764 0
539 -771 0
539 -569 570 0
-540 -571 0
-540 -765 0
-540 -772 0
540 -570 571 0
540 -764 765 0
540 -771 772 0
-541 -772 0
541 -571 0
541 -765 0
542 -543 0
543 -544 0
544 -545 0
545 -546 0
546 -547 0
547 -548 0
548 -549 0
549 -550 0
550 -551 0
551 -552 0
552 -553 0
553 -554 0
554 -555 0
555 -556 0
556 -557 0
557 -558 0
558 -559 0
559 -560 0
560 -561 0
561 -562 0
562 -563 0
563 -564 0
564 -565 0
565 -566 0
566 -567 0
567 -568 0
568 -569 0
569 -570 0
570 -571 0
573 -574 0
574 -575 0
575 -576 0
576 -577 0
577 -578 0
578 -579 0
579 -580 0
580 -581 0
581 -582 0
582 -583 0
583 -584 0
584 -585 0
585 -586 0
586 -587 0
587 -588 0
588 -589 0
589 -590 0
590 -591 0
591 -592 0
592 -593 0
593 -594 0
594 -595 0
595 -596 0
596 -597 0
597 -598 0
598 -599 0
599 -600 0
600 -601 0
601 -602 0
-604 -636 0
-604 -698 0
604 605 636 0
604 605 698 0
-605 -636 0
-605 -698 0
-606 -637 0
-606 -699 0
606 -636 637 0
606 -698 699 0
-607 -638 0
-607 -700 0
607 -637 638 0
607 -699 700 0
-608 -639 0
-608 -701 0
608 -638 639 0
608 -700 701 0
-609 -640 0
-609 -702 0
609 -639 640 0
609 -701 702 0
-610 -641 0
-610 -703 0
610 -640 641 0
610 -702 703 0
-611 -642 0
-611 -704 0
611 -641 642 0
611 -703 704 0
-612 -643 0
-612 -705 0
612 -642 643 0
612 -704 705 0
-613 -644 0
-613 -706 0
613 -643 644 0
613 -705 706 0
-614 -645 0
-614 -707 0
614 -644 645 0
614 -706 707 0
-615 -646 0
-615 -708 0
615 -645 646 0
615 -707 708 0
-616 -647 0
-616 -709 0
616 -646 647 0
616 -708 709 0
-617 -648 0
-617 -710 0
617 -647 648 0
617 -709 710 0
-618 -649 0
-618 -711 0
618 -648 649 0
618 -710 711 0
-619 -650 0
-619 -712 0
619 -649 650 0
619 -711 712 0
-620 -651 0
-620 -713 0
620 -650 651 0
620 -712 713 0
-621 -652 0
-621 -714 0
621 -651 652 0
621 -713 714 0
-622 -653 0
-622 -715 0
622 -652 653 0
622 -714 715 0
-623 -654 0
-623 -716 0
623 -653 654 0
623 -715 716 0
-624 -655 0
-624 -717 0
624 -654 655 0
624 -716 717 0
-625 -656 0
-625 -718 0
625 -655 656 0
625 -717 718 0
-626 -657 0
-626 -719 0
626 -656 657 0
626 -718 719 0
-627 -658 0
-627 -720 0
627 -657 658 0
627 -719 720 0
-628 -659 0
-628 -721 0
628 -658 659 0
628 -720 721 0
-629 -660 0
-629 -729 0
-629 -721 722 0
629 -722 0
629 -659 660 0
629 -721 729 0
-630 -661 0
-630 -723 0
-630 -729 730 0
630 -730 0
630 -660 661 0
630 -722 723 0
-631 -662 0
-631 -731 0
-631 -723 724 0
631 -724 0
631 -661 662 0
631 -730 731 0
-632 -663 0
-632 -732 0
-632 -724 725 0
632 -725 0
632 -662 663 0
632 -731 732 0
-633 -664 0
-633 -725 726 0
-633 -732 733 0
633 -726 0
633 -733 0
633 -663 664 0
-634 -665 0
-634 -727 0
-634 -734 0
634 -664 665 0
634 -726 727 0
634 -733 734 0
-635 -734 0
635 -665 0
635 -727 0
636 -637 0
637 -638 0
638 -639 0
639 -640 0
640 -641 0
641 -642 0
642 -643 0
643 -644 0
644 -645 0
645 -646 0
646 -647 0
647 -648 0
648 -649 0
649 -650 0
650 -651 0
651 -652 0
652 -653 0
653 -654 0
654 -655 0
655 -656 0
656 -657 0
657 -658 0
658 -659 0
659 -660 0
660 -661 0
661 -662 0
662 -663 0
663 -664 0
664 -665 0
667 -668 0
668 -669 0
669 -670 0
670 -671 0
671 -672 0
672 -673 0
673 -674 0
674 -675 0
675 -676 0
676 -677 0
677 -678 0
678 -679 0
679 -680 0
680 -681 0
681 -682 0
682 -683 0
683 -684 0
684 -685 0
685 -686 0
686 -687 0
687 -688 0
688 -689 0
689 -690 0
690 -691 0
691 -692 0
692 -693 0
693 -694 0
694 -695 0
695 -696 0
698 -699 0
699 -700 0
700 -701 0
701 -702 0
702 -703 0
703 -704 0
704 -705 0
705 -706 0
706 -707 0
707 -708 0
708 -709 0
709 -710 0
710 -711 0
711 -712 0
712 -713 0
713 -714 0
714 -715 0
715 -716 0
716 -717 0
717 -718 0
718 -719 0
719 -720 0
720 -721 0
721 -722 0
721 -729 0
722 -723 0
723 -724 0
724 -725 0
725 -726 0
726 -727 0
729 -730 0
730 -731 0
731 -732 0
732 -733 0
733 -734 0
736 -737 0
737 -738 0
738 -739 0
739 -740 0
740 -741 0
741 -742 0
742 -743 0
743 -744 0
744 -745 0
745 -746 0
746 -747 0
747 -748 0
748 -749 0
749 -750 0
750 -751 0
751 -752 0
752 -753 0
753 -754 0
754 -755 0
755 -756 0
756 -757 0
757 -758 0
758 -759 0
759 -760 0
759 -767 0
760 -761 0
761 -762 0
762 -763 0
763 -764 0
764 -765 0
767 -768 0
768 -769 0
769 -770 0
770 -771 0
771 -772 0
-774 -806 0
-774 -837 0
774 775 806 0
774 775 837 0
-775 -806 0
-775 -837 0
-776 -807 0
-776 -838 0
776 -806 807 0
776 -837 838 0
-777 -808 0
-777 -839 0
777 -807 808 0
777 -838 839 0
-778 -809 0
-778 -840 0
778 -808 809 0
778 -839 840 0
-779 -810 0
-779 -841 0
779 -809 810 0
779 -840 841 0
-780 -811 0
-780 -842 0
780 -810 811 0
780 -841 842 0
-781 -812 0
-781 -843 0
781 -811 812 0
781 -842 843 0
-782 -813 0
-782 -844 0
782 -812 813 0
782 -843 844 0
-783 -814 0
-783 -845 0
783 -813 814 0
783 -844 845 0
-784 -815 0
-784 -846 0
784 -814 815 0
784 -845 846 0
-785 -816 0
-785 -847 0
785 -815 816 0
785 -846 847 0
-786 -817 0
-786 -848 0
786 -816 817 0
786 -847 848 0
-787 -818 0
-787 -849 0
787 -817 818 0
787 -848 849 0
-788 -819 0
-788 -850 0
788 -818 819 0
788 -849 850 0
-789 -820 0
-789 -851 0
789 -819 820 0
789 -850 851 0
-790 -821 0
-790 -852 0
790 -820 821 0
790 -851 852 0
-791 -822 0
-791 -853 0
791 -821 822 0
791 -852 853 0
-792 -823 0
-792 -854 0
792 -822 823 0
792 -853 854 0
-793 -824 0
-793 -855 0
793 -823 824 0
793 -854 855 0
-794 -825 0
-794 -856 0
794 -824 825 0
794 -855 856 0
-795 -826 0
-795 -857 0
795 -825 826 0
795 -856 857 0
-796 -827 0
-796 -858 0
796 -826 827 0
796 -857 858 0
-797 -828 0
-797 -859 0
797 -827 828 0
797 -858 859 0
-798 -829 0
-798 -860 0
798 -828 829 0
798 -859 860 0
-799 -861 0
-799 -1265 0
-799 -829 830 0
799 -830 0
799 -860 861 0
799 -860 1265 0
-800 -831 0
-800 -1266 0
-800 -861 862 0
800 -862 0
800 -830 831 0
800 -1265 1266 0
-801 -863 0
-801 -1267 0
-801 -831 832 0
801 -832 0
801 -862 863 0
801 -1266 1267 0
-802 -864 0
-802 -1268 0
-802 -832 833 0
802 -833 0
802 -863 864 0
802 -1267 1268 0
-803 -1269 0
-803 -833 834 0
-803 -864 865 0
803 -834 0
803 -865 0
803 -1268 1269 0
-804 -835 0
-804 -866 0
-804 -1270 0
804 -834 835 0
804 -865 866 0
804 -1269 1270 0
-805 -866 0
805 -835 0
805 -1270 0
806 -807 0
807 -808 0
808 -809 0
809 -810 0
810 -811 0
811 -812 0
812 -813 0
813 -814 0
814 -815 0
815 -816 0
816 -817 0
817 -818 0
818 -819 0
819 -820 0
820 -821 0
821 -822 0
822 -823 0
823 -824 0
824 -825 0
825 -826 0
826 -827 0
827 -828 0
828 -829 0
829 -830 0
830 -831 0
831 -832 0
832 -833 0
833 -834 0
834 -835 0
837 -838 0
838 -839 0
839 -840 0
840 -841 0
841 -842 0
842 -843 0
843 -844 0
844 -845 0
845 -846 0
846 -847 0
847 -848 0
848 -849 0
849 -850 0
850 -851 0
851 -852 0
852 -853 0
853 -854 0
854 -855 0
855 -856 0
856 -857 0
857 -858 0
858 -859 0
859 -860 0
860 -861 0
860 -1265 0
861 -862 0
862 -863 0
863 -864 0
864 -865 0
865 -866 0
-931 -963 0
-931 -1165 0
931 932 963 0
931 932 1165 0
-932 -963 0
-932 -1165 0
-933 -964 0
-933 -1166 0
933 -963 964 0
933 -1165 1166 0
-934 -965 0
-934 -1167 0
934 -964 965 0
934 -1166 1167 0
-935 -966 0
-935 -1168 0
935 -965 966 0
935 -1167 1168 0
-936 -967 0
-936 -1169 0
936 -966 967 0
936 -1168 1169 0
-937 -968 0
-937 -1170 0
937 -967 968 0
937 -1169 1170 0
-938 -969 0
-938 -1171 0
938 -968 969 0
938 -1170 1171 0
-939 -970 0
-939 -1172 0
939 -969 970 0
939 -1171 1172 0
-940 -971 0
-940 -1173 0
940 -970 971 0
940 -1172 1173 0
-941 -972 0
-941 -1174 0
941 -971 972 0
941 -1173 1174 0
-942 -973 0
-942 -1175 0
942 -972 973 0
942 -1174 1175 0
-943 -974 0
-943 -1176 0
943 -973 974 0
943 -1175 1176 0
-944 -975 0
-944 -1177 0
944 -974 975 0
944 -1176 1177 0
-945 -976 0
-945 -1178 0
945 -975 976 0
945 -1177 1178 0
-946 -977 0
-946 -1179 0
946 -976 977 0
946 -1178 1179 0
-947 -978 0
-947 -1180 0
947 -977 978 0
947 -1179 1180 0
-948 -979 0
-948 -1181 0
948 -978 979 0
948 -1180 1181 0
-949 -980 0
-949 -1182 0
949 -979 980 0
949 -1181 1182 0
-950 -981 0
-950 -1183 0
950 -980 981 0
950 -1182 1183 0
-951 -982 0
-951 -1184 0
951 -981 982 0
951 -1183 1184 0
-952 -983 0
-952 -1185 0
952 -982 983 0
952 -1184 1185 0
-953 -984 0
-953 -1186 0
953 -983 984 0
953 -1185 1186 0
-954 -985 0
-954 -1187 0
954 -984 985 0
954 -1186 1187 0
-955 -986 0
-955 -1188 0
955 -985 986 0
955 -1187 1188 0
-956 -1189 0
-956 -1196 0
-956 -986 987 0
956 -987 0
956 -1188 1189 0
956 -1188 1196 0
-957 -988 0
-957 -1190 0
-957 -1196 1197 0
957 -1197 0
957 -987 988 0
957 -1189 1190 0
-958 -1191 0
-958 -1198 0
-958 -988 989 0
958 -989 0
958 -1190 1191 0
958 -1197 1198 0
-959 -1192 0
-959 -1199 0
-959 -989 990 0
959 -990 0
959 -1191 1192 0
959 -1198 1199 0
-960 -1193 0
-960 -990 991 0
-960 -1199 1200 0
960 -991 0
960 -1200 0
960 -1192 1193 0
-961 -992 0
-961 -1194 0
-961 -1201 0
961 -991 992 0
961 -1193 1194 0
961 -1200 1201 0
-962 -1201 0
962 -992 0
962 -1194 0
963 -964 0
964 -965 0
965 -966 0
966 -967 0
967 -968 0
968 -969 0
969 -970 0
970 -971 0
971 -972 0
972 -973 0
973 -974 0
974 -975 0
975 -976 0
976 -977 0
977 -978 0
978 -979 0
979 -980 0
980 -981 0
981 -982 0
982 -983 0
983 -984 0
984 -985 0
985 -986 0
986 -987 0
987 -988 0
988 -989 0
989 -990 0
990 -991 0
991 -992 0
994 -995 0
995 -996 0
996 -997 0
997 -998 0
998 -999 0
-1001 -1033 0
-1001 -1127 0
1001 1002 1033 0
1001 1002 1127 0
-1002 -1033 0
-1002 -1127 0
-1003 -1034 0
-1003 -1128 0
1003 -1033 1034 0
1003 -1127 1128 0
-1004 -1035 0
-1004 -1129 0
1004 -1034 1035 0
1004 -1128 1129 0
-1005 -1036 0
-1005 -1130 0
1005 -1035 1036 0
1005 -1129 1130 0
-1006 -1037 0
-1006 -1131 0
1006 -1036 1037 0
1006 -1130 1131 0
-1007 -1038 0
-1007 -1132 0
1007 -1037 1038 0
1007 -1131 1132 0
-1008 -1039 0
-1008 -1133 0
1008 -1038 1039 0
1008 -1132 1133 0
-1009 -1040 0
-1009 -1134 0
1009 -1039 1040 0
1009 -1133 1134 0
-1010 -1041 0
-1010 -1135 0
1010 -1040 1041 0
1010 -1134 1135 0
-1011 -1042 0
-1011 -1136 0
1011 -1041 1042 0
1011 -1135 1136 0
-1012 -1043 0
-1012 -1137 0
1012 -1042 1043 0
1012 -1136 1137 0
-1013 -1044 0
-1013 -1138 0
1013 -1043 1044 0
1013 -1137 1138 0
-1014 -1045 0
-1014 -1139 0
1014 -1044 1045 0
1014 -1138 1139 0
-1015 -1046 0
-1015 -1140 0
1015 -1045 1046 0
1015 -1139 1140 0
-1016 -1047 0
-1016 -1141 0
1016 -1046 1047 0
1016 -1140 1141 0
-1017 -1048 0
-1017 -1142 0
1017 -1047 1048 0
1017 -1141 1142 0
-1018 -1049 0
-1018 -1143 0
1018 -1048 1049 0
1018 -1142 1143 0
-1019 -1050 0
-1019 -1144 0
1019 -1049 1050 0
1019 -1143 1144 0
-1020 -1051 0
-1020 -1145 0
1020 -1050 1051 0
1020 -1144 1145 0
-1021 -1052 0
-1021 -1146 0
1021 -1051 1052 0
1021 -1145 1146 0
-1022 -1053 0
-1022 -1147 0
1022 -1052 1053 0
1022 -1146 1147 0
-1023 -1054 0
-1023 -1148 0
1023 -1053 1054 0
1023 -1147 1148 0
-1024 -1055 0
-1024 -1149 0
1024 -1054 1055 0
1024 -1148 1149 0
-1025 -1056 0
-1025 -1150 0
1025 -1055 1056 0
1025 -1149 1150 0
-1026 -1151 0
-1026 -1158 0
-1026 -1056 1057 0
1026 -1057 0
1026 -1150 1151 0
1026 -1150 1158 0
-1027 -1058 0
-1027 -1152 0
-1027 -1158 1159 0
1027 -1159 0
1027 -1057 1058 0
1027 -1151 1152 0
-1028 -1153 0
-1028 -1160 0
-1028 -1058 1059 0
1028 -1059 0
1028 -1152 1153 0
1028 -1159 1160 0
-1029 -1154 0
-1029 -1161 0
-1029 -1059 1060 0
1029 -1060 0
1029 -1153 1154 0
1029 -1160 1161 0
-1030 -1155 0
-1030 -1060 1061 0
-1030 -1161 1162 0
1030 -1061 0
1030 -1162 0
1030 -1154 1155 0
-1031 -1062 0
-1031 -1156 0
-1031 -1163 0
1031 -1061 1062 0
1031 -1155 1156 0
1031 -1162 1163 0
-1032 -1163 0
1032 -1062 0
1032 -1156 0
1033 -1034 0
1034 -1035 0
1035 -1036 0
1036 -1037 0
1037 -1038 0
1038 -1039 0
1039 -1040 0
1040 -1041 0
1041 -1042 0
1042 -1043 0
1043 -1044 0
1044 -1045 0
1045 -1046 0
1046 -1047 0
1047 -1048 0
1048 -1049 0
1049 -1050 0
1050 -1051 0
1051 -1052 0
1052 -1053 0
1053 -1054 0
1054 -1055 0
1055 -1056 0
1056 -1057 0
1057 -1058 0
1058 -1059 0
1059 -1060 0
1060 -1061 0
1061 -1062 0
-1064 -1096 0
-1064 -1203 0
-1064 -1234 0
1064 1065 1096 0
1064 1065 1203 0
1064 1065 1234 0
-1065 -1096 0
-1065 -1203 0
-1065 -1234 0
-1066 -1097 0
-1066 -1204 0
-1066 -1235 0
1066 -1096 1097 0
1066 -1203 1204 0
1066 -1234 1235 0
-1067 -1098 0
-1067 -1205 0
-1067 -1236 0
1067 -1097 1098 0
1067 -1204 1205 0
1067 -1235 1236 0
-1068 -1099 0
-1068 -1206 0
-1068 -1237 0
1068 -1098 1099 0
1068 -1205 1206 0
1068 -1236 1237 0
-1069 -1100 0
-1069 -1207 0
-1069 -1238 0
1069 -1099 1100 0
1069 -1206 1207 0
1069 -1237 1238 0
-1070 -1101 0
-1070 -1208 0
-1070 -1239 0
1070 -1100 1101 0
1070 -1207 1208 0
1070 -1238 1239 0
-1071 -1102 0
-1071 -1209 0
-1071 -1240 0
1071 -1101 1102 0
1071 -1208 1209 0
1071 -1239 1240 0
-1072 -1103 0
-1072 -1210 0
-1072 -1241 0
1072 -1102 1103 0
1072 -1209 1210 0
1072 -1240 1241 0
-1073 -1104 0
-1073 -1211 0
-1073 -1242 0
1073 -1103 1104 0
1073 -1210 1211 0
1073 -1241 1242 0
-1074 -1105 0
-1074 -1212 0
-1074 -1243 0
1074 -1104 1105 0
1074 -1211 1212 0
1074 -1242 1243 0
-1075 -1106 0
-1075 -1213 0
-1075 -1244 0
1075 -1105 1106 0
1075 -1212 1213 0
1075 -1243 1244 0
-1076 -1107 0
-1076 -1214 0
-1076 -1245 0
1076 -1106 1107 0
1076 -1213 1214 0
1076 -1244 1245 0
-1077 -1108 0
-1077 -1215 0
-1077 -1246 0
1077 -1107 1108 0
1077 -1214 1215 0
1077 -1245 1246 0
-1078 -1109 0
-1078 -1216 0
-1078 -1247 0
1078 -1108 1109 0
1078 -1215 1216 0
1078 -1246 1247 0
-1079 -1110 0
-1079 -1217 0
-1079 -1248 0
1079 -1109 1110 0
1079 -1216 1217 0
1079 -1247 1248 0
-1080 -1111 0
-1080 -1218 0
-1080 -1249 0
1080 -1110 1111 0
1080 -1217 1218 0
1080 -1248 1249 0
-1081 -1112 0
-1081 -1219 0
-1081 -1250 0
1081 -1111 1112 0
1081 -1218 1219 0
1081 -1249 1250 0
-1082 -1113 0
-1082 -1220 0
-1082 -1251 0
1082 -1112 1113 0
1082 -1219 1220 0
1082 -1250 1251 0
-1083 -1114 0
-1083 -1221 0
-1083 -1252 0
1083 -1113 1114 0
1083 -1220 1221 0
1083 -1251 1252 0
-1084 -1115 0
-1084 -1222 0
-1084 -1253 0
1084 -1114 1115 0
1084 -1221 1222 0
1084 -1252 1253 0
-1085 -1116 0
-1085 -1223 0
-1085 -1254 0
1085 -1115 1116 0
1085 -1222 1223 0
1085 -1253 1254 0
-1086 -1117 0
-1086 -1224 0
-1086 -1255 0
1086 -1116 1117 0
1086 -1223 1224 0
1086 -1254 1255 0
-1087 -1118 0
-1087 -1225 0
-1087 -1256 0
1087 -1117 1118 0
1087 -1224 1225 0
1087 -1255 1256 0
-1088 -1119 0
-1088 -1226 0
-1088 -1257 0
1088 -1118 1119 0
1088 -1225 1226 0
1088 -1256 1257 0
-1089 -1120 0
-1089 -1227 0
-1089 -1257 1258 0
1089 -1258 0
1089 -1119 1120 0
1089 -1226 1227 0
-1090 -1121 0
-1090 -1259 0
-1090 -1227 1228 0
1090 -1228 0
1090 -1120 1121 0
1090 -1258 1259 0
-1091 -1122 0
-1091 -1229 0
-1091 -1259 1260 0
1091 -1260 0
1091 -1121 1122 0
1091 -1228 1229 0
-1092 -1123 0
-1092 -1230 0
-1092 -1260 1261 0
1092 -1261 0
1092 -1122 1123 0
1092 -1229 1230 0
-1093 -1124 0
-1093 -1230 1231 0
-1093 -1261 1262 0
1093 -1231 0
1093 -1262 0
1093 -1123 1124 0
-1094 -1125 0
-1094 -1232 0
-1094 -1263 0
1094 -1124 1125 0
1094 -1231 1232 0
1094 -1262 1263 0
-1095 -1232 0
1095 -1125 0
1095 -1263 0
1096 -1097 0
1097 -1098 0
1098 -1099 0
1099 -1100 0
1100 -1101 0
1101 -1102 0
1102 -1103 0
1103 -1104 0
1104 -1105 0
1105 -1106 0
1106 -1107 0
1107 -1108 0
1108 -1109 0
1109 -1110 0
1110 -1111 0
1111 -1112 0
1112 -1113 0
1113 -1114 0
1114 -1115 0
1115 -1116 0
1116 -1117 0
1117 -1118 0
1118 -1119 0
1119 -1120 0
1120 -1121 0
1121 -1122 0
1122 -1123 0
1123 -1124 0
1124 -1125 0
1127 -1128 0
1128 -1129 0
1129 -1130 0
1130 -1131 0
1131 -1132 0
1132 -1133 0
1133 -1134 0
1134 -1135 0
1135 -1136 0
1136 -1137 0
1137 -1138 0
1138 -1139 0
1139 -1140 0
1140 -1141 0
1141 -1142 0
1142 -1143 0
1143 -1144 0
1144 -1145 0
1145 -1146 0
1146 -1147 0
1147 -1148 0
1148 -1149 0
1149 -1150 0
1150 -1151 0
1150 -1158 0
1151 -1152 0
1152 -1153 0
1153 -1154 0
1154 -1155 0
1155 -1156 0
1158 -1159 0
1159 -1160 0
1160 -1161 0
1161 -1162 0
1162 -1163 0
1165 -1166 0
1166 -1167 0
1167 -1168 0
1168 -1169 0
1169 -1170 0
1170 -1171 0
1171 -1172 0
1172 -1173 0
1173 -1174 0
1174 -1175 0
1175 -1176 0
1176 -1177 0
1177 -1178 0
1178 -1179 0
1179 -1180 0
1180 -1181 0
1181 -1182 0
1182 -1183 0
1183 -1184 0
1184 -1185 0
1185 -1186 0
1186 -1187 0
1187 -1188 0
1188 -1189 0
1188 -1196 0
1189 -1190 0
1190 -1191 0
1191 -1192 0
1192 -1193 0
1193 -1194 0
1196 -1197 0
1197 -1198 0
1198 -1199 0
1199 -1200 0
1200 -1201 0
1203 -1204 0
1204 -1205 0
1205 -1206 0
1206 -1207 0
1207 -1208 0
1208 -1209 0
1209 -1210 0
1210 -1211 0
1211 -1212 0
1212 -1213 0
1213 -1214 0
1214 -1215 0
1215 -1216 0
1216 -1217 0
1217 -1218 0
1218 -1219 0
1219 -1220 0
1220 -1221 0
1221 -1222 0
1222 -1223 0
1223 -1224 0
1224 -1225 0
1225 -1226 0
1226 -1227 0
1227 -1228 0
1228 -1229 0
1229 -1230 0
1230 -1231 0
1231 -1232 0
1234 -1235 0
1235 -1236 0
1236 -1237 0
1237 -1238 0
1238 -1239 0
1239 -1240 0
1240 -1241 0
1241 -1242 0
1242 -1243 0
1243 -1244 0
1244 -1245 0
1245 -1246 0
1246 -1247 0
1247 -1248 0
1248 -1249 0
1249 -1250 0
1250 -1251 0
1251 -1252 0
1252 -1253 0
1253 -1254 0
1254 -1255 0
1255 -1256 0
1256 -1257 0
1257 -1258 0
1258 -1259 0
1259 -1260 0
1260 -1261 0
1261 -1262 0
1262 -1263 0
1265 -1266 0
1266 -1267 0
1267 -1268 0
1268 -1269 0
1269 -1270 0
